NAME: cuum910.tsp
TYPE: TSP
COMMENT: User-generated TSP file
DIMENSION: 910
EDGE_WEIGHT_TYPE: EUC_2D
NODE_COORD_SECTION
1 711.0 413.0
2 93.0 466.0
3 177.0 473.0
4 175.0 739.0
5 255.0 585.0
6 6.0 89.0
7 465.0 613.0
8 468.0 347.0
9 321.0 13.0
10 853.0 889.0
11 9.0 258.0
12 78.0 507.0
13 361.0 874.0
14 793.0 52.0
15 712.0 781.0
16 330.0 208.0
17 893.0 287.0
18 243.0 762.0
19 748.0 385.0
20 263.0 50.0
21 5.0 802.0
22 862.0 413.0
23 266.0 15.0
24 781.0 398.0
25 547.0 731.0
26 482.0 783.0
27 289.0 287.0
28 488.0 241.0
29 35.0 393.0
30 719.0 709.0
31 872.0 753.0
32 51.0 490.0
33 504.0 603.0
34 571.0 623.0
35 605.0 489.0
36 87.0 450.0
37 464.0 147.0
38 330.0 861.0
39 696.0 886.0
40 351.0 606.0
41 843.0 340.0
42 105.0 418.0
43 264.0 763.0
44 558.0 81.0
45 360.0 264.0
46 556.0 337.0
47 89.0 757.0
48 274.0 104.0
49 109.0 439.0
50 179.0 641.0
51 458.0 397.0
52 580.0 28.0
53 601.0 491.0
54 481.0 731.0
55 71.0 327.0
56 411.0 782.0
57 676.0 319.0
58 96.0 237.0
59 583.0 409.0
60 750.0 808.0
61 150.0 387.0
62 876.0 264.0
63 494.0 316.0
64 672.0 155.0
65 307.0 160.0
66 882.0 243.0
67 214.0 155.0
68 145.0 636.0
69 822.0 41.0
70 349.0 485.0
71 363.0 655.0
72 760.0 396.0
73 71.0 770.0
74 284.0 405.0
75 157.0 834.0
76 737.0 558.0
77 876.0 721.0
78 483.0 706.0
79 332.0 57.0
80 26.0 704.0
81 149.0 619.0
82 250.0 210.0
83 624.0 773.0
84 878.0 567.0
85 80.0 859.0
86 376.0 523.0
87 550.0 192.0
88 151.0 901.0
89 276.0 183.0
90 550.0 130.0
91 544.0 816.0
92 745.0 729.0
93 120.0 773.0
94 503.0 387.0
95 339.0 288.0
96 393.0 732.0
97 36.0 95.0
98 867.0 719.0
99 157.0 844.0
100 868.0 496.0
101 723.0 480.0
102 294.0 767.0
103 534.0 854.0
104 806.0 202.0
105 546.0 113.0
106 805.0 643.0
107 829.0 747.0
108 116.0 506.0
109 299.0 385.0
110 525.0 297.0
111 307.0 739.0
112 179.0 650.0
113 116.0 254.0
114 634.0 815.0
115 901.0 185.0
116 830.0 515.0
117 525.0 166.0
118 199.0 663.0
119 376.0 448.0
120 396.0 136.0
121 271.0 370.0
122 357.0 448.0
123 481.0 881.0
124 568.0 273.0
125 42.0 418.0
126 432.0 124.0
127 739.0 294.0
128 296.0 145.0
129 238.0 609.0
130 823.0 520.0
131 741.0 649.0
132 738.0 254.0
133 738.0 786.0
134 199.0 284.0
135 799.0 553.0
136 717.0 330.0
137 89.0 374.0
138 263.0 565.0
139 619.0 542.0
140 245.0 685.0
141 888.0 280.0
142 472.0 656.0
143 377.0 494.0
144 738.0 576.0
145 18.0 617.0
146 296.0 360.0
147 639.0 630.0
148 248.0 870.0
149 66.0 751.0
150 890.0 659.0
151 850.0 783.0
152 179.0 624.0
153 354.0 130.0
154 153.0 571.0
155 621.0 147.0
156 861.0 409.0
157 425.0 318.0
158 571.0 836.0
159 561.0 606.0
160 113.0 182.0
161 145.0 684.0
162 125.0 323.0
163 422.0 253.0
164 766.0 316.0
165 686.0 778.0
166 663.0 753.0
167 100.0 585.0
168 194.0 830.0
169 377.0 709.0
170 598.0 902.0
171 823.0 16.0
172 729.0 403.0
173 131.0 340.0
174 673.0 676.0
175 114.0 417.0
176 586.0 88.0
177 735.0 453.0
178 287.0 66.0
179 406.0 596.0
180 19.0 17.0
181 350.0 866.0
182 491.0 198.0
183 5.0 193.0
184 628.0 766.0
185 409.0 665.0
186 31.0 269.0
187 770.0 818.0
188 140.0 509.0
189 54.0 765.0
190 76.0 60.0
191 618.0 263.0
192 453.0 302.0
193 848.0 93.0
194 382.0 174.0
195 581.0 787.0
196 395.0 42.0
197 256.0 663.0
198 165.0 776.0
199 740.0 32.0
200 437.0 126.0
201 61.0 538.0
202 204.0 363.0
203 177.0 147.0
204 16.0 395.0
205 332.0 609.0
206 528.0 489.0
207 743.0 827.0
208 63.0 563.0
209 247.0 80.0
210 253.0 70.0
211 554.0 501.0
212 776.0 698.0
213 180.0 225.0
214 551.0 906.0
215 569.0 229.0
216 756.0 801.0
217 847.0 395.0
218 202.0 695.0
219 14.0 71.0
220 641.0 126.0
221 798.0 386.0
222 361.0 688.0
223 902.0 799.0
224 889.0 352.0
225 902.0 387.0
226 320.0 14.0
227 211.0 10.0
228 724.0 803.0
229 736.0 139.0
230 172.0 526.0
231 778.0 837.0
232 117.0 898.0
233 3.0 199.0
234 288.0 551.0
235 861.0 574.0
236 863.0 105.0
237 430.0 764.0
238 871.0 344.0
239 323.0 410.0
240 266.0 432.0
241 24.0 254.0
242 346.0 491.0
243 511.0 376.0
244 570.0 267.0
245 696.0 653.0
246 196.0 256.0
247 770.0 591.0
248 457.0 861.0
249 786.0 375.0
250 305.0 171.0
251 256.0 146.0
252 112.0 77.0
253 473.0 901.0
254 442.0 221.0
255 83.0 46.0
256 400.0 196.0
257 791.0 661.0
258 406.0 155.0
259 196.0 519.0
260 753.0 629.0
261 523.0 825.0
262 872.0 909.0
263 858.0 548.0
264 659.0 844.0
265 652.0 374.0
266 74.0 625.0
267 432.0 651.0
268 81.0 481.0
269 212.0 150.0
270 53.0 196.0
271 222.0 363.0
272 268.0 549.0
273 623.0 68.0
274 368.0 487.0
275 902.0 420.0
276 374.0 510.0
277 626.0 615.0
278 142.0 867.0
279 546.0 34.0
280 251.0 1.0
281 247.0 48.0
282 856.0 548.0
283 283.0 271.0
284 65.0 699.0
285 134.0 443.0
286 581.0 561.0
287 255.0 295.0
288 815.0 339.0
289 739.0 908.0
290 827.0 795.0
291 261.0 215.0
292 280.0 155.0
293 636.0 113.0
294 280.0 292.0
295 706.0 122.0
296 826.0 346.0
297 621.0 624.0
298 901.0 787.0
299 428.0 304.0
300 323.0 365.0
301 371.0 70.0
302 490.0 534.0
303 698.0 852.0
304 673.0 693.0
305 587.0 745.0
306 126.0 270.0
307 261.0 140.0
308 374.0 872.0
309 518.0 845.0
310 227.0 282.0
311 905.0 107.0
312 529.0 47.0
313 727.0 409.0
314 146.0 512.0
315 191.0 143.0
316 197.0 348.0
317 874.0 157.0
318 883.0 524.0
319 760.0 697.0
320 750.0 542.0
321 204.0 583.0
322 161.0 299.0
323 191.0 507.0
324 178.0 191.0
325 886.0 257.0
326 664.0 480.0
327 847.0 545.0
328 613.0 153.0
329 359.0 618.0
330 33.0 52.0
331 812.0 703.0
332 667.0 265.0
333 461.0 527.0
334 87.0 254.0
335 825.0 853.0
336 607.0 400.0
337 275.0 297.0
338 640.0 715.0
339 120.0 651.0
340 344.0 372.0
341 336.0 766.0
342 76.0 110.0
343 549.0 511.0
344 271.0 611.0
345 163.0 882.0
346 252.0 273.0
347 787.0 188.0
348 287.0 737.0
349 759.0 488.0
350 547.0 710.0
351 322.0 91.0
352 342.0 582.0
353 85.0 869.0
354 126.0 611.0
355 799.0 897.0
356 637.0 310.0
357 436.0 739.0
358 259.0 657.0
359 516.0 298.0
360 194.0 206.0
361 218.0 714.0
362 239.0 876.0
363 460.0 469.0
364 781.0 403.0
365 331.0 204.0
366 769.0 832.0
367 191.0 67.0
368 681.0 15.0
369 828.0 302.0
370 32.0 187.0
371 380.0 147.0
372 139.0 390.0
373 758.0 753.0
374 264.0 728.0
375 773.0 332.0
376 641.0 213.0
377 204.0 701.0
378 385.0 605.0
379 557.0 657.0
380 693.0 479.0
381 113.0 555.0
382 668.0 632.0
383 50.0 776.0
384 428.0 278.0
385 334.0 538.0
386 665.0 50.0
387 34.0 109.0
388 208.0 672.0
389 878.0 875.0
390 387.0 874.0
391 620.0 467.0
392 506.0 493.0
393 784.0 683.0
394 880.0 732.0
395 716.0 333.0
396 150.0 335.0
397 169.0 860.0
398 505.0 105.0
399 510.0 119.0
400 573.0 615.0
401 41.0 108.0
402 45.0 131.0
403 332.0 747.0
404 206.0 258.0
405 724.0 36.0
406 277.0 835.0
407 315.0 341.0
408 887.0 10.0
409 106.0 825.0
410 76.0 110.0
411 228.0 875.0
412 71.0 306.0
413 548.0 331.0
414 698.0 105.0
415 296.0 336.0
416 192.0 405.0
417 649.0 82.0
418 683.0 898.0
419 796.0 34.0
420 276.0 545.0
421 527.0 438.0
422 166.0 531.0
423 441.0 723.0
424 161.0 763.0
425 362.0 318.0
426 31.0 320.0
427 781.0 782.0
428 474.0 234.0
429 724.0 605.0
430 496.0 686.0
431 433.0 445.0
432 80.0 901.0
433 574.0 203.0
434 498.0 273.0
435 648.0 351.0
436 319.0 740.0
437 320.0 382.0
438 520.0 384.0
439 572.0 907.0
440 179.0 763.0
441 674.0 331.0
442 633.0 42.0
443 366.0 6.0
444 137.0 718.0
445 142.0 8.0
446 779.0 880.0
447 96.0 439.0
448 699.0 498.0
449 625.0 283.0
450 829.0 686.0
451 362.0 452.0
452 589.0 715.0
453 101.0 81.0
454 167.0 473.0
455 187.0 881.0
456 154.0 295.0
457 518.0 73.0
458 177.0 782.0
459 527.0 396.0
460 555.0 290.0
461 887.0 262.0
462 856.0 269.0
463 908.0 338.0
464 413.0 855.0
465 600.0 733.0
466 28.0 479.0
467 465.0 445.0
468 599.0 442.0
469 196.0 77.0
470 54.0 319.0
471 787.0 858.0
472 474.0 90.0
473 365.0 203.0
474 753.0 680.0
475 179.0 838.0
476 188.0 851.0
477 713.0 867.0
478 848.0 843.0
479 133.0 903.0
480 522.0 429.0
481 479.0 610.0
482 674.0 259.0
483 250.0 400.0
484 370.0 559.0
485 197.0 586.0
486 889.0 679.0
487 802.0 594.0
488 175.0 420.0
489 278.0 449.0
490 446.0 809.0
491 850.0 207.0
492 524.0 118.0
493 449.0 614.0
494 726.0 533.0
495 81.0 26.0
496 119.0 321.0
497 114.0 450.0
498 75.0 877.0
499 449.0 592.0
500 745.0 109.0
501 573.0 766.0
502 775.0 529.0
503 387.0 96.0
504 473.0 232.0
505 901.0 374.0
506 674.0 763.0
507 175.0 678.0
508 233.0 299.0
509 884.0 11.0
510 155.0 105.0
511 284.0 853.0
512 804.0 762.0
513 45.0 894.0
514 594.0 83.0
515 816.0 746.0
516 848.0 162.0
517 209.0 616.0
518 229.0 314.0
519 251.0 457.0
520 577.0 754.0
521 265.0 532.0
522 809.0 694.0
523 558.0 585.0
524 149.0 562.0
525 322.0 214.0
526 198.0 319.0
527 906.0 112.0
528 340.0 820.0
529 28.0 531.0
530 746.0 265.0
531 397.0 762.0
532 740.0 230.0
533 272.0 634.0
534 842.0 5.0
535 152.0 770.0
536 619.0 839.0
537 37.0 614.0
538 692.0 243.0
539 622.0 604.0
540 101.0 270.0
541 754.0 739.0
542 525.0 103.0
543 140.0 492.0
544 218.0 76.0
545 372.0 806.0
546 114.0 35.0
547 827.0 788.0
548 674.0 598.0
549 47.0 829.0
550 149.0 514.0
551 278.0 177.0
552 181.0 100.0
553 253.0 279.0
554 432.0 850.0
555 760.0 602.0
556 692.0 708.0
557 298.0 905.0
558 505.0 295.0
559 124.0 418.0
560 351.0 407.0
561 157.0 751.0
562 55.0 475.0
563 756.0 201.0
564 183.0 861.0
565 692.0 215.0
566 260.0 277.0
567 841.0 477.0
568 700.0 353.0
569 117.0 43.0
570 57.0 800.0
571 112.0 720.0
572 604.0 60.0
573 137.0 470.0
574 700.0 798.0
575 866.0 427.0
576 296.0 884.0
577 77.0 342.0
578 190.0 224.0
579 758.0 481.0
580 617.0 95.0
581 12.0 305.0
582 265.0 355.0
583 400.0 29.0
584 275.0 561.0
585 206.0 413.0
586 215.0 714.0
587 634.0 820.0
588 653.0 594.0
589 759.0 329.0
590 113.0 349.0
591 836.0 399.0
592 489.0 890.0
593 251.0 472.0
594 415.0 410.0
595 597.0 506.0
596 155.0 755.0
597 97.0 894.0
598 549.0 177.0
599 780.0 868.0
600 620.0 885.0
601 421.0 536.0
602 259.0 506.0
603 97.0 180.0
604 885.0 179.0
605 627.0 797.0
606 24.0 888.0
607 237.0 604.0
608 738.0 20.0
609 186.0 862.0
610 27.0 154.0
611 4.0 381.0
612 477.0 24.0
613 642.0 601.0
614 853.0 158.0
615 276.0 442.0
616 301.0 300.0
617 82.0 468.0
618 249.0 113.0
619 703.0 313.0
620 860.0 439.0
621 787.0 103.0
622 53.0 275.0
623 732.0 802.0
624 603.0 782.0
625 359.0 775.0
626 18.0 11.0
627 666.0 81.0
628 41.0 12.0
629 7.0 163.0
630 718.0 891.0
631 36.0 93.0
632 546.0 125.0
633 20.0 155.0
634 343.0 737.0
635 836.0 707.0
636 359.0 824.0
637 669.0 541.0
638 479.0 482.0
639 32.0 776.0
640 482.0 436.0
641 543.0 237.0
642 364.0 659.0
643 448.0 9.0
644 251.0 390.0
645 305.0 802.0
646 788.0 636.0
647 658.0 78.0
648 673.0 537.0
649 564.0 99.0
650 657.0 663.0
651 852.0 630.0
652 434.0 284.0
653 319.0 204.0
654 573.0 761.0
655 602.0 714.0
656 513.0 126.0
657 387.0 304.0
658 497.0 241.0
659 646.0 256.0
660 348.0 210.0
661 746.0 303.0
662 380.0 569.0
663 192.0 842.0
664 595.0 664.0
665 356.0 835.0
666 397.0 253.0
667 444.0 598.0
668 871.0 685.0
669 527.0 649.0
670 100.0 773.0
671 157.0 736.0
672 896.0 751.0
673 434.0 455.0
674 643.0 634.0
675 412.0 437.0
676 737.0 278.0
677 222.0 760.0
678 583.0 549.0
679 769.0 130.0
680 231.0 356.0
681 6.0 262.0
682 633.0 854.0
683 396.0 550.0
684 288.0 863.0
685 798.0 357.0
686 899.0 416.0
687 205.0 900.0
688 859.0 230.0
689 193.0 122.0
690 57.0 868.0
691 624.0 100.0
692 184.0 19.0
693 18.0 843.0
694 662.0 481.0
695 817.0 373.0
696 720.0 30.0
697 297.0 344.0
698 865.0 882.0
699 326.0 797.0
700 108.0 818.0
701 765.0 20.0
702 278.0 573.0
703 403.0 16.0
704 900.0 896.0
705 101.0 826.0
706 3.0 429.0
707 121.0 446.0
708 822.0 77.0
709 897.0 616.0
710 834.0 277.0
711 257.0 269.0
712 316.0 750.0
713 53.0 239.0
714 364.0 184.0
715 500.0 288.0
716 431.0 440.0
717 676.0 579.0
718 799.0 790.0
719 346.0 545.0
720 70.0 181.0
721 655.0 215.0
722 109.0 905.0
723 13.0 227.0
724 49.0 495.0
725 630.0 435.0
726 744.0 319.0
727 463.0 202.0
728 256.0 217.0
729 51.0 489.0
730 1.0 688.0
731 512.0 679.0
732 571.0 513.0
733 203.0 501.0
734 343.0 523.0
735 248.0 278.0
736 167.0 613.0
737 432.0 155.0
738 484.0 493.0
739 702.0 137.0
740 116.0 566.0
741 77.0 590.0
742 572.0 860.0
743 302.0 421.0
744 716.0 212.0
745 201.0 128.0
746 458.0 251.0
747 219.0 898.0
748 105.0 893.0
749 832.0 708.0
750 672.0 448.0
751 637.0 353.0
752 164.0 634.0
753 99.0 29.0
754 124.0 498.0
755 516.0 734.0
756 328.0 190.0
757 142.0 242.0
758 561.0 623.0
759 210.0 168.0
760 641.0 375.0
761 820.0 511.0
762 850.0 664.0
763 392.0 264.0
764 280.0 417.0
765 414.0 401.0
766 421.0 619.0
767 668.0 884.0
768 713.0 571.0
769 755.0 816.0
770 580.0 378.0
771 236.0 617.0
772 174.0 576.0
773 655.0 629.0
774 40.0 526.0
775 880.0 606.0
776 907.0 899.0
777 787.0 378.0
778 560.0 14.0
779 413.0 405.0
780 786.0 764.0
781 240.0 367.0
782 723.0 826.0
783 132.0 705.0
784 548.0 570.0
785 593.0 245.0
786 895.0 257.0
787 597.0 313.0
788 85.0 626.0
789 325.0 455.0
790 264.0 418.0
791 613.0 401.0
792 520.0 290.0
793 651.0 9.0
794 354.0 328.0
795 327.0 590.0
796 269.0 145.0
797 707.0 667.0
798 329.0 221.0
799 567.0 595.0
800 242.0 327.0
801 135.0 89.0
802 719.0 394.0
803 109.0 517.0
804 86.0 731.0
805 284.0 183.0
806 241.0 835.0
807 59.0 239.0
808 284.0 697.0
809 833.0 86.0
810 458.0 853.0
811 371.0 772.0
812 513.0 852.0
813 775.0 824.0
814 316.0 355.0
815 184.0 354.0
816 774.0 620.0
817 369.0 209.0
818 822.0 265.0
819 630.0 40.0
820 441.0 91.0
821 250.0 221.0
822 127.0 761.0
823 394.0 426.0
824 846.0 416.0
825 828.0 451.0
826 89.0 719.0
827 102.0 575.0
828 68.0 136.0
829 421.0 614.0
830 724.0 843.0
831 17.0 601.0
832 293.0 108.0
833 92.0 186.0
834 737.0 107.0
835 509.0 746.0
836 423.0 640.0
837 8.0 645.0
838 410.0 315.0
839 853.0 220.0
840 123.0 282.0
841 170.0 841.0
842 856.0 683.0
843 349.0 780.0
844 753.0 551.0
845 502.0 520.0
846 178.0 417.0
847 390.0 616.0
848 343.0 266.0
849 403.0 300.0
850 876.0 640.0
851 619.0 37.0
852 477.0 741.0
853 2.0 580.0
854 432.0 502.0
855 787.0 412.0
856 48.0 870.0
857 604.0 507.0
858 28.0 679.0
859 292.0 70.0
860 56.0 578.0
861 850.0 534.0
862 227.0 301.0
863 808.0 387.0
864 118.0 262.0
865 129.0 583.0
866 106.0 819.0
867 586.0 162.0
868 701.0 496.0
869 665.0 126.0
870 902.0 71.0
871 109.0 491.0
872 9.0 519.0
873 705.0 449.0
874 348.0 817.0
875 4.0 694.0
876 352.0 112.0
877 644.0 233.0
878 261.0 73.0
879 209.0 721.0
880 874.0 741.0
881 154.0 773.0
882 167.0 274.0
883 793.0 138.0
884 667.0 486.0
885 447.0 408.0
886 679.0 362.0
887 583.0 845.0
888 187.0 252.0
889 300.0 192.0
890 848.0 238.0
891 136.0 771.0
892 464.0 554.0
893 250.0 159.0
894 864.0 820.0
895 526.0 603.0
896 451.0 612.0
897 319.0 322.0
898 743.0 224.0
899 668.0 551.0
900 674.0 766.0
901 703.0 816.0
902 256.0 544.0
903 645.0 19.0
904 675.0 147.0
905 653.0 377.0
906 113.0 291.0
907 766.0 780.0
908 427.0 268.0
909 472.0 207.0
910 319.0 816.0
EOF





